n_students = 80;
n_days = 3;
n_classes = 3;
n_groups = 9;
n_time_units_in_hour = 12;

student_break_importance = [1, 0, 2, 0, 3, 4, 4, 1, 0, 2, 0, 3, 4, 0, 0, 4, 1, 0, 2, 0, 3, 4, 4, 0, 0, 2, 0, 3, 4, 3, 4, 4, 3, 5, 4, 1, 3, 2, 5, 4, 2, 1, 0, 3, 4, 1, 0, 0, 3, 4, 1, 0, 2, 0, 3, 4, 4, 1, 0, 2, 0, 3, 4, 0, 0, 4, 1, 0, 2, 0, 3, 4, 4, 0, 0, 2, 0, 3, 4, 3];
student_prefers = array2d(Student, Group, [
  6, 2, 4, 2, 2, 2, 2, 0, 6,
  6, 2, 4, 2, -1, 2, 2, 0, 6,
  6, 2, 4, 7, 3, 6, -1, 7, 3,
  6, 2, 4, -1, 1, 1, 1, 1, -1,
  6, 2, 4, 2, -1, 2, 2, 0, 6,
  6, 2, 4, 7, 3, 6, -1, 7, 3,
  6, 2, 4, 2, -1, 2, 2, 0, 6,
  6, 2, 4, 7, 3, 6, -1, 7, 3,
  6, 2, 4, -1, 4, 8, 6, 2, 4,
  6, 2, 4, 2, 2, 2, 2, 0, 6,
  6, 2, 4, 7, 3, 6, 1, 7, 3,
  6, 2, 4, 7, 3, 6, 1, 7, 3,
  6, 2, 4, 7, 6, 4, 3, -1, 1,
  6, 2, 4, 1, -1, -1, -1, -1, -1,
  6, 2, 4, -1, 1, 1, 1, 1, -1,
  6, 2, 4, 2, -1, 2, 2, 0, 6,
  6, 2, 4, 7, 3, 6, -1, 7, 3,
  6, 2, 4, -1, 1, 1, 1, 1, -1,
  6, 2, 4, 2, -1, 2, 2, 0, 6,
  6, 2, 4, 7, 3, 6, -1, 7, 3,
  6, 2, 4, 2, -1, 2, 2, 0, 6,
  6, 2, 4, 7, 3, 6, -1, 7, 3,
  6, 2, 4, -1, 4, 8, 6, 2, 4,
  6, 2, 4, 2, 2, 2, 2, 0, 6,
  6, 2, 4, 7, 3, 6, 1, 7, 3,
  6, 2, 4, 7, 6, 4, 3, -1, 1,
  6, 2, 4, 1, -1, -1, -1, -1, -1,
  6, 2, 4, -1, 1, 1, 1, 1, -1,
  6, 2, 4, 2, -1, 2, 2, 0, 6,
  6, 2, 4, 7, 3, 6, -1, 7, 3,
  6, 2, 4,   -1, 4, 8, 6, 2, 4,
  6, 2, 4, 2, 2, 2, 2, 0, 6,
  6, 2, 4, 7, 3, 6, 1, 7, 3,
  6, 2, 4, -1, -1, 1, -1, -1, -1,
  6, 2, 4, 7, 3, 6, -1, 7, 3,
  6, 2, 4, -1, 6, 4, 3, -1, 1,
  6, 2, 4, 2, -1, 2, 2, 0, 6,
  6, 2, 4, 2, -1, 2, 2, 0, 6,
  6, 2, 4, 7, 3, 6, -1, 7, 3,
  6, 2, 4, -1, 6, 4, 3, -1, 1,
  6, 2, 4, 2, -1, 2, 2, 0, 6,
  6, 2, 4, 2, -1, 2, 2, 0, 6,
  6, 2, 4, -1, -1, -1, -1, 1, -1,
  6, 2, 4, 2, -1, 2, 2, 0, 6,
  6, 2, 4, 7, 3, 6, -1, 7, 3,
  6, 2, 4, -1, 4, 8, 6, 2, 4,
  6, 2, 4, 2, 2, 2, 2, 0, 6,
  6, 2, 4, 7, 3, 6, 1, 7, 3,
  6, 2, 4, 7, 6, -1, 3, -1, 1,
  6, 2, 4, 7, 3, 6, -1, 7, 3,
  6, 2, 4, 2, -1, 2, 2, 0, 6,
  6, 2, 4, 7, 3, 6, -1, 7, 3,
  6, 2, 4, -1, 4, 8, 6, 2, 4,
  6, 2, 4, 2, 2, 2, 2, 0, 6,
  6, 2, 4, 7, 3, 6, 1, 7, 3,
  6, 2, 4, -1, -1, -1, -1, -1, 1,
  6, 2, 4, 2, 2, 2, 2, 0, 6,
  6, 2, 4, 2, -1, 2, -1, 0, 6,
  6, 2, 4, 7, 3, 6, -1, 7, 3,
  6, 2, 4, -1, 1, 1, 1, 1, -1,
  6, 2, 4, 2, -1, 2, 2, 0, 6,
  6, 2, 4, 7, 3, 6, -1, 7, 3,
  6, 2, 4, 2, -1, 2, 2, 0, 6,
  6, 2, 4, 7, 3, 6, -1, 7, 3,
  6, 2, 4, -1, 4, 8, 6, 2, 4,
  6, 2, 4, 2, 2, -1, 2, 0, 6,
  6, 2, 4, 7, 3, 6, 1, 7, 3,
  6, 2, 4, 7, 3, 6, 1, 7, 3,
  6, 2, 4, 7, 6, 4, 3, -1, 1,
  6, 2, 4, 1, -1, -1, -1, -1, -1,
  6, 2, 4, -1, 1, 1, 1, 1, -1,
  6, 2, 4, 2, -1, 2, 2, 0, 6,
  6, 2, 4, 7, 3, 6, -1, 7, 3,
  6, 2, 4, -1, 1, 1, 1, 1, -1,
  6, 2, 4, 2, -1, 2, 2, 0, 6,
  6, 2, 4, 7, 6, 4, 3, -1, 1,
  6, 2, 4, 1, -1, -1, -1, -1, -1,
  6, 2, 4, -1, 1, 1, 1, -1, -1,
  6, 2, 4, 2, -1, -1, 2, 0, 6,
  6, 2, 4, 7, 3, 6, -1, 7, 3,
]);

class_duration = [18, 24, 5];
class_size = [27, 27, 27];
group_class = [1, 1, 1, 2, 2, 2, 3, 3, 3];
group_start = [96, 96, 108, 96, 108, 110, 96, 108, 96];
group_day = [1, 3, 2, 1, 1, 2, 3, 2, 3];
groups_conflicts = array2d(Group, Group, [false, false, false, false, true, false, false, false, false, false, false, false, false, false, false, true, false, true, false, false, false, false, false, true, false, true, false, false, false, false, false, true, false, false, false, false, true, false, false, true, false, false, false, false, false, false, false, true, false, false, false, false, true, false, false, true, false, false, false, false, false, false, true, false, false, true, false, false, true, false, false, false, false, true, false, false, false, false, true, false, false]);